MST07
Position Depot: Center
Horizon for Depot: Small
Position of customers: Mixt
Distribution of the demand: Large
Width of time windows: Tight
Distribution of the service: Small

VEHICLE 
NUMBER 	 CAPACITY 
 5 	 	 1011 
 
CUSTOMER
CUST NO. 	 XCOORD.  	 YCOORD. 	 DEMAND 	 READY TIME 	 DUE DATE 	 SERVICE TIME 
 0 	 	 500 	 	 500 	 	 0 	 	 0 	 	 1686 	 	 0 
  1 	 	 672 	 	 392 	 	 30 	 	 1394 	 	 1478 	 	 90 
  2 	 	 5 	 	 776 	 	 98 	 	 1407 	 	 1463 	 	 57 
  3 	 	 592 	 	 728 	 	 31 	 	 1381 	 	 1507 	 	 67 
  4 	 	 54 	 	 628 	 	 13 	 	 429 	 	 510 	 	 50 
  5 	 	 22 	 	 161 	 	 6 	 	 1488 	 	 1686 	 	 73 
  6 	 	 415 	 	 427 	 	 79 	 	 1259 	 	 1459 	 	 92 
  7 	 	 101 	 	 648 	 	 36 	 	 951 	 	 1076 	 	 57 
  8 	 	 53 	 	 87 	 	 9 	 	 1226 	 	 1347 	 	 74 
  9 	 	 11 	 	 884 	 	 53 	 	 1187 	 	 1294 	 	 55 
  10 	 	 3 	 	 98 	 	 65 	 	 1115 	 	 1222 	 	 53 
  11 	 	 20 	 	 807 	 	 94 	 	 465 	 	 626 	 	 86 
  12 	 	 133 	 	 588 	 	 28 	 	 364 	 	 489 	 	 69 
  13 	 	 48 	 	 802 	 	 72 	 	 521 	 	 597 	 	 70 
  14 	 	 625 	 	 257 	 	 18 	 	 470 	 	 528 	 	 55 
  15 	 	 614 	 	 755 	 	 69 	 	 374 	 	 570 	 	 51 
  16 	 	 646 	 	 368 	 	 78 	 	 156 	 	 350 	 	 83 
  17 	 	 703 	 	 333 	 	 42 	 	 1246 	 	 1360 	 	 74 
  18 	 	 668 	 	 560 	 	 87 	 	 186 	 	 321 	 	 63 
  19 	 	 122 	 	 605 	 	 75 	 	 947 	 	 1144 	 	 53 
  20 	 	 611 	 	 645 	 	 89 	 	 971 	 	 1056 	 	 62 
  21 	 	 88 	 	 574 	 	 77 	 	 1248 	 	 1445 	 	 59 
  22 	 	 176 	 	 762 	 	 36 	 	 362 	 	 458 	 	 55 
  23 	 	 41 	 	 160 	 	 64 	 	 664 	 	 716 	 	 73 
  24 	 	 592 	 	 721 	 	 6 	 	 183 	 	 263 	 	 68 
  25 	 	 36 	 	 614 	 	 33 	 	 380 	 	 525 	 	 80 
  26 	 	 46 	 	 731 	 	 14 	 	 902 	 	 964 	 	 99 
  27 	 	 607 	 	 667 	 	 97 	 	 631 	 	 720 	 	 94 
  28 	 	 854 	 	 322 	 	 29 	 	 569 	 	 619 	 	 69 
  29 	 	 10 	 	 877 	 	 72 	 	 883 	 	 936 	 	 98 
  30 	 	 573 	 	 589 	 	 52 	 	 356 	 	 430 	 	 98 
  31 	 	 150 	 	 979 	 	 70 	 	 1129 	 	 1242 	 	 70 
  32 	 	 627 	 	 878 	 	 76 	 	 291 	 	 438 	 	 62 
  33 	 	 567 	 	 617 	 	 93 	 	 1448 	 	 1532 	 	 71 
  34 	 	 48 	 	 745 	 	 91 	 	 468 	 	 565 	 	 80 
  35 	 	 437 	 	 577 	 	 97 	 	 909 	 	 1051 	 	 65 
  36 	 	 702 	 	 332 	 	 34 	 	 549 	 	 696 	 	 88 
  37 	 	 45 	 	 636 	 	 79 	 	 452 	 	 633 	 	 85 
  38 	 	 656 	 	 896 	 	 78 	 	 379 	 	 468 	 	 76 
  39 	 	 78 	 	 720 	 	 19 	 	 472 	 	 523 	 	 82 
  40 	 	 16 	 	 91 	 	 36 	 	 998 	 	 1181 	 	 52 
  41 	 	 743 	 	 732 	 	 18 	 	 1147 	 	 1301 	 	 67 
  42 	 	 19 	 	 137 	 	 47 	 	 488 	 	 662 	 	 71 
  43 	 	 55 	 	 523 	 	 64 	 	 1504 	 	 1681 	 	 60 
  44 	 	 563 	 	 239 	 	 69 	 	 1499 	 	 1653 	 	 58 
  45 	 	 137 	 	 566 	 	 51 	 	 1496 	 	 1580 	 	 97 
  46 	 	 83 	 	 528 	 	 29 	 	 328 	 	 459 	 	 58 
  47 	 	 26 	 	 793 	 	 97 	 	 982 	 	 1047 	 	 51 
  48 	 	 29 	 	 756 	 	 1 	 	 1122 	 	 1200 	 	 62 
  49 	 	 108 	 	 566 	 	 73 	 	 1341 	 	 1455 	 	 59 
  50 	 	 604 	 	 716 	 	 61 	 	 682 	 	 759 	 	 82 
  51 	 	 604 	 	 819 	 	 63 	 	 1109 	 	 1176 	 	 57 
  52 	 	 467 	 	 771 	 	 73 	 	 1283 	 	 1380 	 	 62 
  53 	 	 307 	 	 299 	 	 94 	 	 875 	 	 1045 	 	 73 
  54 	 	 672 	 	 101 	 	 95 	 	 1493 	 	 1686 	 	 80 
  55 	 	 853 	 	 737 	 	 2 	 	 352 	 	 467 	 	 83 
  56 	 	 775 	 	 187 	 	 12 	 	 1301 	 	 1366 	 	 77 
  57 	 	 312 	 	 448 	 	 87 	 	 213 	 	 319 	 	 81 
  58 	 	 965 	 	 895 	 	 72 	 	 537 	 	 671 	 	 97 
  59 	 	 635 	 	 681 	 	 36 	 	 485 	 	 662 	 	 69 
  60 	 	 456 	 	 861 	 	 80 	 	 352 	 	 436 	 	 86 
  61 	 	 977 	 	 593 	 	 80 	 	 893 	 	 1090 	 	 96 
  62 	 	 577 	 	 541 	 	 32 	 	 106 	 	 271 	 	 59 
  63 	 	 880 	 	 662 	 	 30 	 	 1440 	 	 1512 	 	 91 
  64 	 	 694 	 	 844 	 	 42 	 	 364 	 	 434 	 	 52 
  65 	 	 780 	 	 314 	 	 28 	 	 1375 	 	 1425 	 	 58 
  66 	 	 995 	 	 848 	 	 78 	 	 755 	 	 830 	 	 51 
  67 	 	 902 	 	 362 	 	 93 	 	 1321 	 	 1376 	 	 69 
  68 	 	 402 	 	 208 	 	 88 	 	 702 	 	 770 	 	 72 
  69 	 	 91 	 	 900 	 	 3 	 	 551 	 	 699 	 	 79 
  70 	 	 886 	 	 696 	 	 91 	 	 497 	 	 622 	 	 89 
  71 	 	 479 	 	 774 	 	 27 	 	 1554 	 	 1617 	 	 53 
  72 	 	 744 	 	 471 	 	 92 	 	 132 	 	 321 	 	 97 
  73 	 	 125 	 	 915 	 	 70 	 	 481 	 	 615 	 	 55 
  74 	 	 991 	 	 667 	 	 13 	 	 573 	 	 763 	 	 91 
  75 	 	 271 	 	 787 	 	 24 	 	 577 	 	 674 	 	 77 
  76 	 	 972 	 	 125 	 	 66 	 	 1344 	 	 1536 	 	 50 
  77 	 	 73 	 	 367 	 	 91 	 	 591 	 	 785 	 	 98 
  78 	 	 642 	 	 16 	 	 94 	 	 354 	 	 554 	 	 60 
  79 	 	 383 	 	 815 	 	 97 	 	 539 	 	 598 	 	 93 
  80 	 	 316 	 	 727 	 	 77 	 	 1253 	 	 1308 	 	 63 
  81 	 	 324 	 	 942 	 	 71 	 	 1059 	 	 1143 	 	 88 
  82 	 	 282 	 	 842 	 	 39 	 	 1174 	 	 1311 	 	 67 
  83 	 	 66 	 	 237 	 	 8 	 	 600 	 	 761 	 	 98 
  84 	 	 216 	 	 544 	 	 48 	 	 1216 	 	 1267 	 	 99 
  85 	 	 611 	 	 537 	 	 44 	 	 1128 	 	 1291 	 	 97 
  86 	 	 967 	 	 920 	 	 90 	 	 570 	 	 690 	 	 91 
  87 	 	 642 	 	 229 	 	 24 	 	 1529 	 	 1595 	 	 57 
  88 	 	 413 	 	 363 	 	 47 	 	 1254 	 	 1409 	 	 60 
  89 	 	 840 	 	 145 	 	 75 	 	 1381 	 	 1487 	 	 80 
  90 	 	 688 	 	 35 	 	 9 	 	 1237 	 	 1372 	 	 70 
  91 	 	 672 	 	 910 	 	 75 	 	 448 	 	 635 	 	 67 
  92 	 	 727 	 	 631 	 	 12 	 	 844 	 	 1004 	 	 79 
  93 	 	 130 	 	 877 	 	 37 	 	 395 	 	 581 	 	 90 
  94 	 	 989 	 	 679 	 	 3 	 	 1458 	 	 1556 	 	 55 
  95 	 	 592 	 	 608 	 	 1 	 	 1596 	 	 1664 	 	 79 
  96 	 	 810 	 	 754 	 	 16 	 	 410 	 	 479 	 	 56 
  97 	 	 617 	 	 104 	 	 43 	 	 871 	 	 1019 	 	 59 
  98 	 	 299 	 	 129 	 	 27 	 	 963 	 	 1085 	 	 98 
  99 	 	 63 	 	 97 	 	 6 	 	 1449 	 	 1535 	 	 86 
  100 	 	 824 	 	 756 	 	 79 	 	 1443 	 	 1516 	 	 68 
 